NAME: test1780
TYPE: TSP
DIMENSION: 11
EDGE_WEIGHT_TYPE: EUC_2D
NODE_COORD_SECTION
1 43.271522447394105 99.2907221715452
2 69.43066260345752 32.56805096146801
3 18.60706496372574 43.58453340747197
4 8.924728204032363 98.90920972327481
5 31.265344726403875 55.16990759246071
6 99.3884610733165 37.134900108831594
7 68.79375840942716 86.16620136620413
8 14.80602767971556 52.85353949288388
9 28.446146703447095 88.53973310889451
10 57.03755700517388 37.45923308784752
11 26.46134942357761 52.728798054877004
EOF
